

******************************************************************************
This program contains Ipopt, a library for large-scale nonlinear optimization.
 Ipopt is released as open source code under the Eclipse Public License (EPL).
         For more information visit http://projects.coin-or.org/Ipopt
******************************************************************************

This is Ipopt version 3.12.8, running with linear solver mumps.
NOTE: Other linear solvers might be more efficient (see Ipopt documentation).

Number of nonzeros in equality constraint Jacobian...:        0
Number of nonzeros in inequality constraint Jacobian.:        5
Number of nonzeros in Lagrangian Hessian.............:       15

Total number of variables............................:        5
                     variables with only lower bounds:        0
                variables with lower and upper bounds:        0
                     variables with only upper bounds:        0
Total number of equality constraints.................:        0
Total number of inequality constraints...............:        1
        inequality constraints with only lower bounds:        0
   inequality constraints with lower and upper bounds:        0
        inequality constraints with only upper bounds:        1

iter    objective    inf_pr   inf_du lg(mu)  ||d||  lg(rg) alpha_du alpha_pr  ls
   0  1.2500000e+00 9.53e-02 1.24e+00  -1.0 0.00e+00    -  0.00e+00 0.00e+00   0
   1  3.1599603e-01 1.26e-01 1.67e+00  -1.0 7.94e-01    -  1.00e+00 1.00e+00f  1
   2  3.1497883e-01 1.03e-01 3.52e+00  -1.0 1.41e-01   2.0 1.00e+00 4.74e-01h  1
   3  5.2396948e-01 2.84e-02 3.00e+00  -1.0 1.86e-01   1.5 1.00e+00 1.00e+00f  1
   4  7.5752537e-01 7.73e-03 8.39e-01  -1.0 1.10e-01   1.0 1.00e+00 1.00e+00h  1
   5  9.0457085e-01 3.00e-03 2.42e+00  -1.7 6.35e-02   0.6 1.00e+00 8.74e-01h  1
   6  1.0789529e+00 8.54e-04 3.59e-01  -1.7 5.61e-02   0.1 1.00e+00 1.00e+00h  1
   7  1.1491884e+00 4.77e-04 3.84e+01  -1.7 3.28e-02    -  1.00e+00 6.65e-01h  1
   8  1.2861245e+00 9.83e-05 9.87e-01  -1.7 4.00e-02    -  1.00e+00 1.00e+00h  1
   9  1.3209199e+00 4.64e-05 7.04e+01  -1.7 1.31e-02    -  1.00e+00 7.88e-01h  1
iter    objective    inf_pr   inf_du lg(mu)  ||d||  lg(rg) alpha_du alpha_pr  ls
  10  1.3780274e+00 0.00e+00 9.34e-01  -1.7 1.59e-02    -  1.00e+00 1.00e+00f  1
  11  1.3639911e+00 0.00e+00 1.04e-02  -2.5 3.84e-03  -0.4 1.00e+00 1.00e+00f  1
  12  1.3626714e+00 0.00e+00 4.89e-04  -5.7 3.71e-04  -0.9 1.00e+00 1.00e+00f  1
  13  1.3626481e+00 0.00e+00 8.61e-08  -5.7 6.53e-06    -  1.00e+00 1.00e+00h  1
  14  1.3626462e+00 0.00e+00 2.37e-08  -8.6 5.19e-07  -1.3 1.00e+00 1.00e+00h  1

Number of Iterations....: 14

                                   (scaled)                 (unscaled)
Objective...............:   1.3626462201717922e+00    1.3626462201717922e+00
Dual infeasibility......:   2.3749925581739717e-08    2.3749925581739717e-08
Constraint violation....:   0.0000000000000000e+00    0.0000000000000000e+00
Complementarity.........:   2.5319655937266338e-09    2.5319655937266338e-09
Overall NLP error.......:   2.2412340944213014e-09    2.3749925581739717e-08


Number of objective function evaluations             = 15
Number of objective gradient evaluations             = 15
Number of equality constraint evaluations            = 0
Number of inequality constraint evaluations          = 15
Number of equality constraint Jacobian evaluations   = 0
Number of inequality constraint Jacobian evaluations = 15
Number of Lagrangian Hessian evaluations             = 14
Total CPU secs in IPOPT (w/o function evaluations)   =      0.002
Total CPU secs in NLP function evaluations           =      0.002

EXIT: Optimal Solution Found.
 
Ipopt 3.12.8: Optimal Solution Found
